(declare-const a Int)
(declare-const b Int)
(declare-const c Int)
(declare-const d Int)
(declare-const e Int)
(declare-const f Int)
(declare-const g Int)
(push)
(assert (> f 0))
(push)
(assert (> c 0))
(push)
(assert (> d 0))
(push)
(assert (> b 0))
(push)
(assert (> g 0))
(push)
(assert (< e 0))
(push)
(assert (= a (div 1 0)))
(assert (distinct 0 (mod 0 0)))
(check-sat)
(assert (= 0 (mod a 0)))
(check-sat)
